c Random generated cnf formula, satisfiable: false
p cnf 10 50
8 -7 6 0
-8 1 6 0
6 9 -4 0
-1 3 4 0
-1 7 -2 0
-4 3 -1 0
-5 -8 10 0
2 1 -5 0
6 4 -5 0
9 3 10 0
-2 7 10 0
-9 -8 1 0
-7 -5 6 0
-3 -5 -7 0
-9 -3 -6 0
5 10 6 0
-9 -5 4 0
-2 -9 -6 0
-7 9 6 0
-2 -8 9 0
1 -8 -9 0
7 -1 10 0
-9 4 8 0
6 -10 -8 0
-8 1 -10 0
9 5 -3 0
4 9 -3 0
8 1 3 0
-4 -1 5 0
-6 9 8 0
6 -9 -8 0
-10 -3 1 0
2 5 -7 0
-3 -8 7 0
1 -8 -5 0
-8 -10 -2 0
-4 9 7 0
-4 -7 6 0
9 7 4 0
7 8 -6 0
-4 -9 -7 0
3 -9 7 0
-1 10 -9 0
-2 8 6 0
-5 10 4 0
-4 1 -3 0
-3 -5 2 0
2 -5 -7 0
8 3 -10 0
-7 -8 -10 0
